c User generated cnf file
p cnf 11 48
3 -2 1 0 
8 6 -9 0 
5 9 -5 0 
4 -5 1 0 
7 -11 9 0 
3 4 -9 0 
1 7 -3 0 
-4 4 5 0 
5 2 -4 0 
4 1 -6 0 
-9 10 1 0 
-8 11 3 0 
11 -1 9 0 
2 -3 7 0 
-10 2 4 0 
2 8 -8 0 
-3 7 2 0 
5 -7 3 0 
5 -10 11 0 
3 -1 8 0 
6 8 -3 0 
8 1 -11 0 
5 -3 3 0 
8 4 -9 0 
2 -11 10 0 
-11 6 2 0 
10 -8 1 0 
-6 4 1 0 
-7 1 10 0 
10 3 -4 0 
-3 9 7 0 
7 4 -7 0 
-4 11 5 0 
6 2 -2 0 
4 -2 3 0 
9 3 -3 0 
-10 7 5 0 
1 6 -3 0 
10 1 -2 0 
8 -10 9 0 
7 -9 1 0 
-11 10 4 0 
3 -11 9 0 
1 2 -3 0 
4 -3 2 0 
-9 1 7 0 
7 -7 8 0 
-10 8 4 0 
